
50
127584

6148 4148
4878 2878
11448 8448
6438 4438
7288 5288
7513 5513
6390 3390
8395 6395
11001 9001
3720 720
8610 5610
4641 2641
8557 6557
9234 6234
2458 458
3130 1130
7284 5284
10587 8587
9977 7977
10239 8239
3371 1371
5506 3506
7770 5770
5665 3665
4307 2307
11221 9221
8353 6353
5981 3981
6761 4761
9996 6996
9593 7593
9796 7796
5345 3345
11677 9677
9631 7631
5706 2706
3720 1720
7302 4302
4606 2606
10776 8776
2094 94
10180 8180
3619 1619
10119 8119
6328 4328
3318 1318
11854 9854
6190 4190
11784 9784
5225 3225
